Route #1: 5 12 58
Route #2: 83 51 81
Route #3: 21 56 94 80
Route #4: 30 85 11 79
Route #5: 14 49 6 37 87
Route #6: 25 65 78 42 28
Route #7: 35 46 31
Route #8: 75 93
Route #9: 50 91 52
Route #10: 7 2 45 43 29 36 72 57
Route #11: 15 22 41 20
Route #12: 27 97 19
Route #13: 63 77 3
Route #14: 39 10 18
Route #15: 89 98 99 62 71
Route #16: 34 64 96 48 26 47 38
Route #17: 92 9 86
Route #18: 74 13 4
Route #19: 69 16 55 76
Route #20: 100 61 23
Route #21: 66 84 90 68
Route #22: 44 67 88 40
Route #23: 8 17
Route #24: 32 33 53 73 95 24
Route #25: 1 70 54
Route #26: 82 60 59
Cost 27591.0000
Time 16.0005